10
1 2
2 3
3 8
4 3
5 2
6 4
7 1
8 9
9 3
26
0 1 96
1 0 96
0 2 35
2 0 35
0 3 9
3 0 9
0 4 43
4 0 43
0 5 9
5 0 9
0 6 32
6 0 32
0 7 89
7 0 89
0 8 41
8 0 41
0 9 85
9 0 85
1 2 69
1 4 84
2 7 85
3 4 15
3 7 82
4 8 73
6 8 33
7 9 78
